(set-logic HORN)
(declare-fun inv ((_ BitVec 64) (_ BitVec 64) (_ BitVec 64) ) Bool)
(assert (forall ((x (_ BitVec 64)) (m (_ BitVec 64)) (n (_ BitVec 64))) 
       (=> ( and ( = x (_ bv0 64) ) ( = m (_ bv0 64) ) ) (inv x m n))))
(assert (forall ((x (_ BitVec 64)) (m (_ BitVec 64)) (n (_ BitVec 64)) (x! (_ BitVec 64)) (m! (_ BitVec 64)) (n! (_ BitVec 64))) 
       (=> (and (inv x m n) ( and ( bvslt x n ) ( or ( = m! x ) ( = m! m ) ) ( = n! n ) ( = x! ( bvadd x (_ bv1 64) ) ) )) (inv x! m! n!))))
(assert (forall ((x (_ BitVec 64)) (m (_ BitVec 64)) (n (_ BitVec 64))) 
       (=> (inv x m n) ( and ( or ( bvsge m (_ bv0 64) ) ( bvsle n (_ bv0 64) ) ) ( or ( bvslt m n ) ( bvsle n (_ bv0 64) ) ) ))))
(check-sat)
